(declare-const x sl.tree.loc)
(declare-const l sl.tree.loc)
(declare-const r sl.tree.loc)
(declare-const ll sl.tree.loc)
(declare-const lr sl.tree.loc)
(declare-const rl sl.tree.loc)
(declare-const rr sl.tree.loc)
(declare-const xd Int)
(declare-const ld Int)
(declare-const rd Int)
(assert (sl.sepcon
         (sl.sepcon (sl.tree.dpointsto x l r xd)
                    (sl.sepcon (sl.tree.dpointsto l ll lr ld)
                               (sl.tree.dpointsto r rl rr rd)))
         (sl.sepcon
          (sl.sepcon (sl.tree.eq ll sl.tree.null)
                     (sl.tree.eq lr sl.tree.null))
          (sl.sepcon (sl.tree.eq rl sl.tree.null)
                     (sl.tree.eq rr sl.tree.null)))))
(assert (sl.tree x))
